
        $ From http://www.csplib.org/Problems/prob009/data/helmut.pdf
        $ Problem number 87
        $ Sequence length : 25
        language ESSENCE' 1.0
        letting sizemaster be 322
        letting sizes be sequence(3,4,8,9,10,16,18,20,22,23,24,28,31,38,44,47,64,65,68,76,80,81,97,144,178)
        